&GLOBAL
    PROJECT	
    RUN_TYPE	MOLECULAR_DYNAMICS
    PRINT_LEVEL	LOW
&END GLOBAL
&EXT_RESTART
    RESTART_FILE_NAME	
&END EXT_RESTART
&MOTION
    &MOLECULAR_DYNAMICS
        ENSEMBLE	NVT
        TEMPERATURE	298.0
        STEPS	50000
        MAX_STEPS	50000
        TIMESTEP	0.5
        &THERMOSTAT
            &NOSE
                LENGTH	3
                TIMECON	100
                YOSHIDA	3
                MTS	2
            &END NOSE
        &END THERMOSTAT
    &END MOLECULAR_DYNAMICS
    &PRINT
        &TRAJECTORY
            FILENAME	filename
        &END TRAJECTORY
        &STRESS
            FILENAME	stress
            &EACH
                MOLECULAR_DYNAMICS	200
            &END EACH
        &END STRESS
    &END PRINT
&END MOTION
&FORCE_EVAL
    METHOD	QS
    &DFT
        BASIS_SET_FILE_NAME	BASIS_MOLOPT
        POTENTIAL_FILE_NAME	scanXcPotential.txt
        &MGRID
            NGRIDS	5
            CUTOFF	400
        &END MGRID
        &QS
            EPS_DEFAULT	1e-12
            EXTRAPOLATION	ASPC
            EXTRAPOLATION_ORDER	2
        &END QS
        &SCF
            SCF_GUESS	ATOMIC
        &END SCF
        &XC
            &XC_FUNCTIONAL
                &MGGA_X_SCAN
                &END MGGA_X_SCAN
            &END XC_FUNCTIONAL
            &XC_GRID
                XC_SMOOTH_RHO	NN10
                XC_DERIV	SPLINE2_SMOOTH
            &END XC_GRID
        &END XC
    &END DFT
    &SUBSYS
        &CELL
            ABC	18.1462749444	18.1462749444	18.1462749444
        &END CELL
        &COORD
            H	-4.1040047691	-5.0470484539	-4.4590373939
            O	-4.8959872001	-7.1104378998	-5.1808808060
            O	-5.1200364019	-5.0343536509	-4.2722132713
            N	-5.5955389252	-6.2539568901	-4.6006433962
            O	-6.7562433508	-6.4047502013	-4.2815199027
            O	0.8472244701	-4.5389191725	-0.7296230009
            N	-2.8690335854	-7.2904638943	-1.1851830556
            H	-1.8752288806	-4.9634027793	-3.9069471989
            H	-2.2347966944	-6.0711952858	-5.0614619097
            O	-2.4477792338	-5.1607444498	-4.7095656158
            H	-4.0364389573	-2.2964150937	-1.8777363577
            O	-3.5735558765	-2.6363135688	-2.6324389481
            O	-3.0597128228	-2.3682121829	-5.7179690054
            N	-2.3355908429	-1.9550768243	-2.8084321554
            O	-2.2203498238	-0.9779948133	-2.1503435544
            O	-8.0154641132	-2.3874537476	-3.7789105094
            N	-7.6374677681	-2.1840284408	-4.9320181458
            O	-7.3492224487	-3.2424317387	-5.7350921908
            O	-1.5539598358	-2.5016790288	-3.5689143759
            H	-7.0863584988	-2.8102695960	-6.5495265281
            N	-2.1448814030	-2.4534965538	-6.5825747795
            H	-1.6926820914	-4.0329844940	-5.7141218922
            O	-1.2284820865	-3.3839244432	-6.3487461650
            O	-6.0649933568	-7.0370943948	-8.5961019934
            H	10.1784937277	-4.3087034164	-2.3927067397
            N	-2.4681946413	-7.3645442848	-7.3044427523
            N	-6.3065142751	-5.8618023019	-8.3876889370
            O	-7.2337436575	-5.1620170035	-8.7482403272
            H	0.4495834705	-4.9335808474	-1.6002113686
            O	-1.9349287173	-6.4927015158	-1.3402023934
            O	10.5041247940	-1.0946147825	-5.5113557675
            N	-0.1879924879	-3.9729661150	-0.0408100666
            O	-3.8270415366	-3.8788007253	1.4805500262
            H	-7.3836787496	-7.9527191141	-4.8934105437
            O	-2.6828557691	-8.2114265565	-0.1383825715
            O	-1.2339621169	-3.7919436081	-0.6691444017
            O	-1.5539005449	-7.5801423269	-6.3100714892
            H	-1.3098281167	-8.5866495914	-6.2966971219
            O	-3.8526473159	-7.4235010582	-1.9312743180
            O	-1.9556284073	-1.6672594934	-7.5144421674
            O	-0.1828190888	-9.7371969931	-2.1404934364
            O	-0.0363097794	-5.3184512015	-3.0981277109
            H	-0.9761265296	-10.1288899757	-2.6598998649
            O	-2.8780968743	7.3862277995	-2.9865196235
            O	-2.8067155203	-6.1603728652	-7.3441400995
            O	0.7122265855	0.6489189984	-2.7570750013
            O	-8.1365889547	-4.2477409828	-1.4264443705
            H	-3.4309771108	-8.8030145592	-0.2520862906
            H	1.1292140589	8.6265898588	0.3291780812
            N	-6.8891403924	-4.1310618778	-0.8710240810
            O	-5.9650370456	-4.2021544493	-1.7217737684
            O	1.8629536235	-2.2735038954	-3.5074053016
            O	1.3333230199	-8.1305218986	-2.5916614051
            O	-0.0018575404	-3.7100662299	1.1743496228
            O	3.7519987600	-2.7577914689	-2.5634225423
            N	0.8158476730	-5.4925853427	-3.9785137179
            H	1.6081892705	-1.8065856383	-4.4952967610
            O	0.5848847780	-5.7027984048	-5.2009278186
            O	6.4052548500	-8.8579641588	-7.5091355470
            O	7.9101694468	-3.5076218198	-7.4419999877
            O	9.1183524773	-7.7622142791	-1.1984198330
            H	9.9128355690	-8.2819727491	-0.9057437331
            N	7.7500017650	-2.3053185278	-7.3568843250
            N	7.3016404195	-8.1684301104	-7.9401521129
            H	3.4615517007	-5.6584238879	-0.4030413315
            O	7.5011930578	-4.1266789374	-4.5327214927
            O	2.0977199038	-5.4772647716	-3.5133523930
            O	3.8397784814	-5.9850121527	-1.2506857419
            O	8.0677597717	-5.6405291076	-3.0105237898
            H	2.7336490328	-5.8196838636	-4.2715280794
            N	4.1595598351	-7.3297410081	-1.1051860782
            O	4.4699553415	-7.9057310586	-2.1687455317
            H	7.6253305310	-6.4099992190	-2.6491059241
            N	7.0677749945	-5.0271931011	-3.8365676137
            O	3.7920552917	-6.4941303802	-5.1546558996
            H	4.6892541628	-6.6113652151	-4.7267448406
            H	3.4923722949	-7.4031494409	-5.4007645324
            O	6.7942315379	0.1982086109	-3.4113163267
            O	5.9760034043	-5.5546127909	-3.7397312414
            N	3.1715117278	-2.5372281306	-3.5955767374
            O	3.6949851115	-2.6395694801	-4.6945142738
            O	7.3522669806	-8.1930779363	-2.4692686655
            N	8.1944763488	-8.6475164648	-1.6153637588
            O	6.2207269000	-3.5168370705	-1.3739404629
            N	7.2202797188	-2.9198603301	-1.0287281476
            H	6.7672570467	-1.7008959513	-2.3157424233
            O	7.5732361420	-7.0265851866	-7.6346200422
            O	7.6445127834	-1.9108264404	-1.9114885451
            O	7.9933702733	-3.1271922768	-0.0505299286
            O	4.0900821084	-7.8599403482	0.0029581718
            O	8.5424519225	-1.4096386425	-7.6775712624
            H	7.1776308669	0.3489681105	-4.3558480436
            O	4.6823006493	-9.5759004244	-4.8169385627
            O	8.1960200085	-9.7286622881	-1.0759019421
            H	1.6025630998	-1.3699220378	-6.4311696318
            O	6.4979453671	-1.9215905120	-6.8351925399
            O	4.8632871941	-4.0227000407	-6.9188052584
            O	1.2497207089	-1.2099046048	12.6203469115
            H	5.8468353375	-2.7178616437	-6.7882458042
            O	2.6834619951	-9.0047735679	-5.5136719322
            O	3.0740231860	0.6301818375	-7.4619717650
            H	8.1768026651	-0.6256859208	3.5301152298
            H	0.9874983430	-0.2487456859	-5.4799082442
            O	-7.8340600511	9.6332567260	-5.5780721828
            O	-8.5357135230	-9.7678376774	-3.8196041060
            O	-5.4478890026	6.3608077468	-6.5247561760
            N	-8.6488331233	8.6538971444	-5.0412283808
            O	-0.0774756200	8.1725420123	-6.7360150099
            H	0.7821493969	8.4789855147	-6.4695106053
            H	9.1163677576	6.7356533420	-7.6147624619
            O	-3.5422364773	0.4811333391	-6.5594427303
            O	1.0574708675	-0.9115274634	-1.2159980935
            N	-3.4786262011	7.6302708611	-4.0208080205
            O	-4.8056959856	7.1591241430	-3.9646074715
            H	-0.0296543884	7.9872889852	-7.7541369246
            O	-6.1114548283	5.6723081128	-8.5323534605
            H	-6.9004606411	5.2359275312	-8.9897067602
            O	-3.1176581055	8.2457063296	-5.0024335569
            O	-7.5158047774	-12.5525208087	-6.7737277255
            N	-6.4243729134	5.9462097386	-7.1920694210
            O	-7.6217527265	3.4225789943	-4.5137004763
            H	-5.2059874068	6.9455093946	-4.8248556848
            O	-6.6580844807	1.4054354833	-2.7642793955
            H	-5.7584860257	1.0429052832	-4.8894213506
            O	-4.4388323951	3.5824238651	-2.9934696314
            O	-5.3550430872	0.2736837423	-4.3104481023
            O	-2.1563573513	3.2767665704	-2.6998406903
            N	-3.6111484967	2.8454320848	-2.5454506324
            O	0.1895188033	1.0377870259	-0.7252194927
            N	-2.7042529753	1.2876441639	-5.7455741070
            N	0.6077591268	0.3385072806	-1.6215348847
            N	-6.0392081945	0.4145122166	-3.0195129043
            O	-3.3086011401	2.1708468908	-5.2050226021
            O	-5.9226390666	-0.5890120471	-2.3478926379
            O	1.1165523242	5.2555647195	-6.8452812288
            N	0.4466596121	4.9375276473	-5.8550949747
            O	-3.7003526918	1.7971411870	-1.9051474117
            H	-1.6857920549	2.4795266604	-2.3515188126
            O	-5.2703407117	2.7630997850	1.2852610027
            N	-6.1811564307	2.0506677651	0.9076784133
            H	-5.3293211732	4.7086297950	-1.1563841472
            N	-8.7071767233	3.7947361171	-4.0163638676
            O	-1.5313324717	0.9283929512	-5.6741109983
            O	-3.0515018697	3.9277237793	-10.0328309471
            H	-2.1955582425	3.3753397422	-9.9356357459
            H	-6.5018091058	4.3379378852	-2.1842705488
            O	-6.3267987770	4.7575500455	-1.2997956788
            O	0.3228469222	3.7788526188	-5.3842162745
            O	-6.0818669402	0.8340345410	0.6357430042
            O	-6.7936670509	2.8573115477	-7.2592586853
            N	-6.8891507998	1.9305000593	-8.0623517326
            O	-3.7153203475	5.2336995104	-0.3285760711
            O	-9.8541379729	3.3042028669	-4.0218242209
            H	-2.8900415926	-0.1886553434	-6.9042123340
            O	-6.5125419673	0.7448190074	-7.8406057639
            O	-9.4217291630	8.0903340732	-5.8149073551
            H	-9.0814107585	4.9907106860	8.7133977213
            O	9.5412095689	5.0445845360	-3.5134626015
            O	-5.1109991177	7.8680066634	-0.6993584429
            O	-2.4000135222	5.9909049531	1.2000620403
            H	1.2374150829	-1.3453720418	-2.1099147871
            N	5.4416973198	0.6276512479	-3.4535883540
            O	8.2298271127	9.3356070822	-8.8568134133
            O	5.0935784148	1.2253278222	-4.5389418569
            N	3.3449627100	8.3356763856	-4.8331302202
            N	0.3677012205	-8.7457459003	-3.0194683235
            H	-1.2751374875	5.6345391468	-0.3353382827
            O	-0.2467779087	9.4571872513	-4.0911222694
            O	-0.7291875338	2.7475735161	-9.0773809434
            H	8.0527784062	8.3713476482	-8.8075148615
            H	10.4284406880	-0.0605726910	0.2320251008
            O	4.7859685251	0.3661785714	-2.4711378090
            O	-0.2621926987	5.9558371725	-5.1794594556
            H	-0.2435165582	6.8120741866	-5.7389284834
            H	5.0823476988	-10.3257767673	-3.9017692557
            H	6.2908582641	7.9607154680	-2.4559441725
            O	5.5129289330	7.4197313092	-2.7911938091
            O	1.5458795665	1.7285280504	-6.2261976095
            N	2.8096313855	1.7225561007	-7.0112857336
            O	3.4857255492	2.7632045839	-7.0467072225
            O	8.4637557641	6.7109624611	-8.3534501586
            H	7.6566282393	6.6529445393	-7.8332830378
            H	4.8585264470	7.2933925971	-2.0501258718
            H	1.2345103874	2.6801003795	-6.0352508246
            H	9.2827127708	-1.1568204986	-0.2852131062
            O	9.6533632652	-0.2516836436	-0.3578377600
            H	8.7690616711	0.5733903130	-0.3136992280
            O	7.9044626367	1.5119788702	-0.5342413077
            O	2.8408234141	7.4990468988	-4.1369800593
            O	8.3957993214	3.4095799135	-7.0994458889
            O	5.8965658301	5.6782264169	-6.4346619515
            H	8.7386905798	5.1729465791	-2.8639098711
            H	0.5219696764	5.8674522688	-1.2436399937
            H	8.7386356319	1.5334243313	-5.1671992775
            O	1.5766496868	5.8583473217	-1.4132713507
            O	1.2098743284	7.1487667534	0.3144140228
            N	2.0313470202	6.8103395618	-0.6038663763
            O	3.0738575309	7.3757953917	-0.8518295270
            H	8.9561830988	0.0502039200	-5.7423569465
            O	8.2842530194	0.7004955011	-5.4696537992
            N	3.6420255486	4.1581537006	-1.7778842268
            O	3.2317881071	4.0752576006	-2.9332617181
            O	2.8620806981	3.3922184660	-0.9374588676
            H	7.3817757097	1.2784739650	-7.0718964583
            H	3.2195517029	3.6239812325	0.0282846278
            H	4.5419410788	4.0786051301	-4.2427129991
            O	5.3422281335	4.2436256972	-4.8157558981
            N	4.9842779992	5.2607546411	-5.7621054655
            O	3.7976599020	5.4529606468	-5.8334021301
            O	-1.7105201287	7.6317828339	-9.3699330176
            N	-2.6422035521	7.1973358914	-8.6941167393
            O	-2.5787038181	6.7421422409	-7.5581746503
            O	4.5600907051	4.7765036978	-1.3006232223
            O	8.0055787836	5.0347177457	-1.2427437229
            H	7.7370131069	4.1142058267	-1.4168891388
            O	5.9947095782	7.0008643185	0.2284565095
            H	7.2713613405	5.5585108454	-0.8093622169
            N	6.0204855446	7.7186005064	1.2253182337
            O	7.0246395624	8.2371185625	1.7328864860
            H	4.0540972596	8.8465062777	-8.4534388543
            H	4.0626094501	7.7236184877	1.1418182998
            O	0.3594848196	4.4977192307	-9.7187092231
            N	0.2793302427	3.3566723752	-9.3529332409
            O	4.8277864459	7.9324467770	1.8423734564
            O	1.4925349059	2.6574564864	-9.1877054229
            H	2.1715523059	3.2735898249	-9.5672206854
            O	-1.3037665163	-5.6541774569	7.3800750468
            O	-2.9489517302	-8.2658515030	10.1623514817
            H	-4.4871148214	-5.9351043481	10.4311228476
            O	-5.2254602787	-5.2286588504	10.3888511071
            O	0.8268219768	-8.5018063482	0.4247694426
            N	1.5275990952	-7.9690006024	1.5469067804
            N	-4.2150512155	-2.7378335300	1.3960945084
            O	0.8880669379	-0.7317780179	8.5972087432
            N	0.7976753569	-1.9423679181	8.4895782176
            O	-4.2129223765	-1.9731276230	2.5465693178
            H	-4.5930107981	-1.0776214758	2.3783369635
            O	-5.5772538229	-0.7999427842	4.4539524986
            N	-5.4532988893	0.3826515458	4.5147191025
            O	-1.3249717277	-0.2781296272	3.6852911961
            O	0.7484147833	-2.5210869645	7.1578158560
            O	-1.2315031406	-2.4885536502	3.8639953739
            H	-1.0755749162	-2.5076179633	1.7493971468
            O	-1.2795695498	-1.5351351015	1.8720389332
            N	-1.3016862268	-1.4133806129	3.2549998539
            O	-5.7515594768	-3.1160636993	7.5104469734
            N	-4.5177866585	-3.2528347302	7.5317661792
            O	-3.7872788216	-2.8649479419	8.4422549222
            O	-0.1050430950	-5.0589549082	4.0371284868
            O	-3.9078673630	-3.8195676116	6.4978471707
            N	-7.1545881896	-9.5051549932	7.2176350819
            H	-4.6523885856	-3.9338866773	5.7991202784
            N	-1.1867421354	-5.5716294822	3.7911637155
            H	-0.4481041988	-6.1288130842	2.1894748903
            O	-1.3739534156	-6.1751606466	2.5743604961
            H	-5.1926149145	-5.3872382101	2.8015993697
            O	-5.3230626110	-7.4352847817	4.0203011376
            O	-5.1502079763	-4.0809653960	4.3155423376
            O	-7.6764655845	-8.4689486655	6.8424586188
            O	-4.8877644455	1.1127867156	3.7367657304
            O	-6.8530754101	-3.9694786303	0.3394000622
            H	-5.1109854563	-3.1468718322	4.0969264390
            H	0.6481394009	-1.8155056355	6.4936826252
            O	-5.3780782601	-6.1845061066	2.1576872842
            N	-5.0787811551	-7.3671692788	2.8020425934
            O	-3.9945861942	-0.5341676015	6.6808297289
            H	-10.6838131859	-3.1117073065	8.1751205162
            N	-2.8208231702	-0.1176807710	6.8769799079
            O	6.5026587705	-3.0384304460	8.1070548838
            O	-7.5460199943	-2.2653742464	2.8702719661
            O	-2.0007382054	-0.8581168700	7.8531578812
            O	-6.8594448966	7.5975156334	6.6162131976
            H	-2.6279864803	-1.6075938512	8.2286699053
            H	-6.1553622213	-4.2905208483	4.3225257770
            O	-4.4816590332	-2.0865079092	0.3572065355
            N	9.8361260342	-1.3405718221	2.9887086548
            O	-9.7380058304	-1.5471576075	3.1584739569
            O	0.6503511947	-2.7585940644	9.4023624900
            O	-2.2031190739	-5.3954530119	4.4854386659
            O	10.1409429775	-0.1505704790	2.8711732937
            H	-5.7118160291	-2.4348440334	-8.2475030596
            O	-4.6452988102	9.8502166764	2.1053409983
            N	-0.4275639273	-6.1845099846	8.1241815320
            O	2.0335533178	-0.8170391550	2.0346446286
            O	-6.9547580170	-9.5656685655	8.6026432292
            H	-7.2275447344	-8.6803282565	8.8817352292
            O	-8.7723400886	-2.3226334310	7.9822879799
            H	-8.1319030596	-2.3129020156	8.6851104231
            O	3.9393772956	-4.5803402742	1.8198342340
            O	6.4819283641	-6.0952589604	0.0571013268
            N	3.8677017133	-3.6092534828	10.6222436224
            H	3.0390909806	-5.1348419203	11.3813567067
            O	3.6769922821	-2.5380988595	10.1780227777
            O	3.9509439516	-3.0206674631	0.4963619864
            N	6.1536399249	-3.1334451421	6.7050067980
            O	1.3358632945	-6.7328062122	1.8168810687
            O	-11.2729029083	-3.7452855911	5.9410249147
            O	5.1171289726	-2.5172723164	6.4562422627
            H	0.3755695033	-4.4859916615	8.2627888047
            O	0.6248768277	-5.4023566388	8.6016134463
            N	2.6925922108	-0.0982831873	1.3297414349
            O	3.6234603625	-0.4929466688	0.5942578881
            O	2.7872445595	-4.4761745418	10.6635843853
            H	9.5567815295	-5.9975934408	8.3664021670
            H	8.1183747780	-6.3656735146	8.3656404185
            O	8.7449036501	-5.8329147648	7.8801627908
            O	4.9340510338	-2.6935922155	2.4931046624
            O	2.5532822289	-3.8047827213	4.3930867640
            O	1.8208438836	-5.3890146031	5.7848775611
            H	8.8640101733	-5.6933358496	6.2027832561
            H	3.9376271038	-1.9666135265	0.5278852967
            H	3.5254156107	-5.4152631748	3.2401777580
            N	2.4943661562	-4.9090271765	4.8292044346
            O	3.1872443776	-5.8882679593	4.0824080341
            N	4.3281675295	-3.4122642630	1.6798314395
            H	8.4889011056	-6.1223052159	2.1548375698
            O	8.1911585227	-6.5903506085	1.3298070286
            N	7.1449392408	-5.7141273953	1.0185387442
            O	6.9950380914	-4.7512850697	1.7261736693
            O	2.9707409968	-0.4219104240	6.1682341282
            O	6.8934637236	0.6335325394	4.1836844127
            O	8.6718051407	-5.6968910028	5.2021421672
            N	9.7773013691	-5.1467285383	4.6239401625
            O	-8.3401716063	-5.0930760168	3.4129048239
            O	10.6691963985	-4.8251549965	5.4344579247
            N	5.6763786018	0.8542445668	3.9200860126
            O	4.9055658999	1.4002298138	4.7235220216
            N	2.1156201352	-0.1869557481	5.2861528890
            O	1.0545731666	-0.7934133389	5.0834041930
            H	3.4121427063	0.9834005177	4.4779924266
            O	2.4040503334	0.8362772182	4.3863223303
            O	5.9794462965	-6.7946400113	3.2935922899
            O	4.5367848415	-5.8239440964	7.4028080091
            O	5.3860638697	0.1727653206	8.1341330326
            H	5.4710372190	-0.7993188859	8.1049641965
            H	6.0432363058	0.2681159476	2.0569709126
            O	5.1661413556	0.4565536330	2.6770209327
            O	6.4390357582	1.9085523121	7.4752947403
            N	6.4858849390	0.7160121932	7.5018942792
            N	4.1184929046	-6.8521687446	7.9821593702
            O	2.3120582510	9.4574200486	2.2056270874
            H	-6.6377884135	6.2334199718	-1.1042067408
            N	-3.9514718032	3.0959221864	-9.4422242134
            O	-5.1305225470	3.3331132928	8.4721155538
            O	-7.1785461077	7.1370512227	-0.8481448136
            O	-8.2231299350	4.6627794993	8.3775204905
            N	-3.5397948172	5.8032102059	0.6861164037
            O	-6.7884585771	-8.8116414839	-0.4529859326
            H	-8.3266833063	4.5646726577	7.3771123383
            O	-7.5241619650	2.5036014118	0.9140839293
            O	-6.2387454414	1.1403305457	5.4244066017
            O	-2.2043197936	0.7599497561	6.3531942962
            H	-7.5454230303	3.5516181734	1.1151003713
            H	-2.3107274674	0.8022735391	2.4251298051
            O	-6.6147608940	-2.1511661880	-8.0869813461
            H	-8.5178532599	5.3501377742	0.4174006592
            O	-8.3853765118	4.8121278959	1.2581857847
            O	-4.3755871769	8.9910887822	5.9753478685
            H	-6.5903818249	0.5096898301	6.1548093139
            H	-3.7236754230	1.4352865196	2.0675950111
            O	-2.8488172880	1.2239784352	1.7096831558
            O	-3.6746314742	10.6058394746	7.3055800501
            N	-6.2965551564	8.1875954952	-0.6549967625
            H	-6.4797186188	-1.1516641727	-8.1651415904
            H	-8.1790200151	5.4362082355	1.9854645542
            O	-2.3134175650	9.7314716050	5.8424669919
            O	-1.7218368870	3.1164117296	0.8943283302
            H	-2.3808813158	2.3251309141	1.3553782805
            O	-7.5144308383	2.0682601818	8.8587348567
            H	-7.8155546796	3.0576155311	8.7541129181
            O	-7.4061065031	-0.6658875829	7.3932885462
            H	-2.8181712905	11.0992223531	7.3212608810
            O	-7.8613170227	3.3553818211	3.8769674488
            H	-7.0469483257	4.5057517480	5.4458794991
            N	-3.4449930198	9.6860739950	6.2692473084
            H	-3.4848815277	3.6940295243	5.1438600088
            O	-4.4649351826	3.9155333801	5.1264276473
            O	-5.8541062960	5.5060829135	5.4243312287
            O	-3.7633816125	5.9577990420	5.7758536402
            N	-4.6797183818	5.2337564048	5.4883480063
            H	-4.2245068636	6.6063909512	2.3588434574
            O	-4.6355872525	6.0925835130	1.4459702550
            O	-3.4468161126	2.0552264294	9.2129053049
            O	-7.9274766027	4.1280619211	5.8917911545
            O	-4.0096501192	7.2891455494	3.5487968744
            H	-4.5410044429	8.1504087715	3.5175711478
            O	-7.8415431294	7.9910368683	2.0707077069
            N	-7.6260310263	7.4872993641	3.1703160557
            O	-1.2054300535	3.8526633238	6.0139038322
            O	-7.8020205048	6.2804981537	3.5001634443
            H	-3.1243688369	7.6156193166	3.3669565629
            O	-7.2189796028	8.3741954594	4.0833397926
            N	-0.5001178539	2.9999275322	1.3933649841
            O	0.2649794235	3.9045919863	1.0401921464
            O	-0.1435064732	1.9786053042	2.1303424382
            H	-7.0580915306	8.0376970275	5.1046100925
            O	-0.6202301946	8.4161647831	2.4168711700
            O	6.9664640678	-0.1244826070	0.6868552025
            H	-1.2180734574	5.2102841880	-1.8932967639
            O	-0.8923405916	5.8310090337	-1.2354642197
            O	-3.8493595453	7.1181806268	8.7654450652
            N	7.4640618014	3.1330874884	-7.8309085455
            O	3.5978539617	7.9947257654	-8.2483287557
            H	2.3704740878	7.9034081076	-8.9002755895
            O	1.3701535943	7.9049115120	-9.3056829622
            H	8.1974214150	4.0367095647	1.8155419492
            H	4.1381008336	7.3431169933	9.3937183677
            O	7.3291029332	-0.0450535732	7.0278400718
            N	6.2077357440	10.4615746185	4.0665960718
            H	2.6448072863	-6.8024420374	6.7544749134
            O	5.9094738144	1.7643284312	0.2491942696
            O	7.3403220043	9.9674620454	4.3527249065
            H	4.3205113687	-7.6953931843	4.3848285060
            O	-0.4428535522	10.8066009971	8.5667507257
            N	-8.2918594695	-1.3994255058	6.9939979148
            N	9.5582394129	3.5005053718	4.8053296710
            O	2.2485954270	1.1681744611	1.0941227658
            N	6.9161200845	1.0816399703	0.1810885654
            O	9.5317206869	-1.6529059819	5.8095972305
            O	4.5797874335	10.7248057888	8.9584574129
            O	6.8405197857	1.8619945690	-7.7335966489
            O	7.3272548476	3.6259549261	1.9792496893
            H	-4.4117686483	6.4697430441	9.1778964987
            H	7.5775424219	7.0514652599	4.3999272986
            O	3.0594502413	-7.5140356832	7.3890720087
            H	7.5598121239	8.3792006600	5.1470127248
            N	-1.0667199164	3.4970098496	4.8760813942
            O	7.8817214844	7.4743646868	5.1840522778
            O	0.2243777447	3.0694027920	4.6465223357
            O	-1.9407504931	3.4995045113	3.9673397439
            O	7.3865233401	5.5690920068	2.9760308136
            N	6.7114934010	4.5408990743	2.8566941846
            H	1.4139907388	1.3591129506	1.5623735196
            O	3.3264423432	4.7253932514	1.5059561313
            O	8.3747781947	3.1952743561	4.9398141124
            H	0.1982079517	7.8845966855	5.2685128099
            O	5.6240135841	4.1820319140	3.2333703684
            O	7.0065180113	3.8328557358	9.3702786175
            O	3.0719045492	4.5185104845	5.8368494930
            O	2.7812434386	3.4213851093	3.2155959178
            O	0.2472498988	8.4289467401	4.4344220835
            O	-1.4451499198	7.0091412932	3.8473912449
            N	4.0753651421	3.9960017927	6.3274298787
            O	5.2755140304	4.0654874012	6.0140233838
            H	2.8084228503	5.4371199963	4.3270875218
            O	2.6333842701	5.7411245198	3.3208877115
            O	5.1677024022	6.1873436149	8.5261092111
            N	2.9516629994	4.5001144357	2.6386981245
            O	5.0756889660	9.9107952603	4.7413437846
            H	0.1025188614	2.5834394297	3.7729868626
            O	5.4814621188	8.0055835286	7.2845443289
            N	5.7533542159	6.8446819404	7.6597027036
            H	4.5816396609	2.7848140130	7.7645139656
            H	7.2163048471	6.7517106022	6.3425918081
            O	6.7447247658	6.1704422800	7.0739672400
            O	3.7614733781	3.2902387994	7.5057683364
            O	0.4331375806	7.6478422623	6.9392025900
            O	2.5309472755	7.1385097135	7.0736137961
            N	1.5131227268	7.6037353337	7.4989176605
            N	-0.6719186817	7.8787510395	3.4940395705
        &END COORD
        &KIND H
            BASIS_SET	DZVP-MOLOPT-SR-GTH
            POTENTIAL	GTH-SCAN-q1
        &END KIND H
        &KIND N
            BASIS_SET	DZVP-MOLOPT-SR-GTH
            POTENTIAL	GTH-SCAN-q5
        &END KIND N
        &KIND O
            BASIS_SET	DZVP-MOLOPT-SR-GTH
            POTENTIAL	GTH-SCAN-q6
        &END KIND O
    &END SUBSYS
&END FORCE_EVAL
